interdiction/MCDM/NO_CORR/GEN_FROM_60/14_ITEMS_1000_GEN/K5014W18.KNP.mps
NAME          BLANK   
ROWS
 N  OBJROW
 L  R0000000
COLUMNS
    C0000000  OBJROW     -865.         R0000000  607.        
    C0000001  OBJROW     -435.         R0000000  446.        
    C0000002  OBJROW     -591.         R0000000  454.        
    C0000003  OBJROW     -226.         R0000000  110.        
    C0000004  OBJROW     -8.           R0000000  915.        
    C0000005  OBJROW     -49.          R0000000  311.        
    C0000006  OBJROW     -450.         R0000000  734.        
    C0000007  OBJROW     -226.         R0000000  404.        
    C0000008  OBJROW     -150.         R0000000  172.        
    C0000009  OBJROW     -365.         R0000000  135.        
    C0000010  OBJROW     -652.         R0000000  948.        
    C0000011  OBJROW     -797.         R0000000  175.        
    C0000012  OBJROW     -424.         R0000000  97.         
    C0000013  OBJROW     -496.         R0000000  914.        
RHS
    RHS       R0000000  14132.      
BOUNDS
 BV BOUND     C0000000  1.          
 BV BOUND     C0000001  1.          
 BV BOUND     C0000002  1.          
 BV BOUND     C0000003  1.          
 BV BOUND     C0000004  1.          
 BV BOUND     C0000005  1.          
 BV BOUND     C0000006  1.          
 BV BOUND     C0000007  1.          
 BV BOUND     C0000008  1.          
 BV BOUND     C0000009  1.          
 BV BOUND     C0000010  1.          
 BV BOUND     C0000011  1.          
 BV BOUND     C0000012  1.          
 BV BOUND     C0000013  1.          
ENDATA
