data/MCDM/NO_CORR/GEN_FROM_60/14_ITEMS_1000_GEN/K5014W18.KNP.txt
N 14
M 15
LC 14
LC 15
LC 16
LC 17
LC 18
LC 19
LC 20
LC 21
LC 22
LC 23
LC 24
LC 25
LC 26
LC 27
LR 1
LR 2
LR 3
LR 4
LR 5
LR 6
LR 7
LR 8
LR 9
LR 10
LR 11
LR 12
LR 13
LR 14
LR 15
LO -865
LO -435
LO -591
LO -226
LO -8
LO -49
LO -450
LO -226
LO -150
LO -365
LO -652
LO -797
LO -424
LO -496
OS 1
IC 861
IC 491
IC 735
IC 966
IC 267
IC 280
IC 864
IC 346
IC 595
IC 912
IC 169
IC 313
IC 702
IC 580
IB 4041
